[2026-03-23T13:42:48.951Z] Pipeline "set_exp_2_exp_2_n029_c006_g005" → 2026_03_23_13_42_48_set_exp_2_exp_2_n029_c006_g005_max.sol
Set parameter WLSAccessID
Set parameter WLSSecret
Set parameter LicenseID to value 2792458
Set parameter LogFile to value "gurobi.log"
Using license file /root/gurobi.lic
Academic license 2792458 - for non-commercial use only - registered to an___@studenti.unipg.it

Gurobi Optimizer version 13.0.1 build v13.0.1rc0 (linux64 - "Ubuntu 24.04.4 LTS")
Copyright (c) 2026, Gurobi Optimization, LLC

Warning: Duplicate section found (read 'binary') - Is a variable name equal to an LP file format keyword?
Warning: Duplicate section found (read 'binary') - Is a variable name equal to an LP file format keyword?
Warning: Duplicate section found (read 'binary') - Is a variable name equal to an LP file format keyword?
Warning: Duplicate section found (read 'binary') - Is a variable name equal to an LP file format keyword?
Warning: Duplicate section found (read 'binary') - Is a variable name equal to an LP file format keyword?
Warning: Duplicate section found (read 'binary') - Is a variable name equal to an LP file format keyword?
Warning: Duplicate section found (read 'binary') - Is a variable name equal to an LP file format keyword?
Warning: Duplicate section found (read 'binary') - Is a variable name equal to an LP file format keyword?
Warning: Duplicate section found (read 'binary') - Is a variable name equal to an LP file format keyword?
Warning: Duplicate section found (read 'binary') - Is a variable name equal to an LP file format keyword?
Warning: Further warnings of this type will be omitted.
Read LP format model from file /root/bgw/data/uploads/2026_03_23_13_42_48_set_exp_2_exp_2_n029_c006_g005_max.lp
Reading time = 0.01 seconds
: 8371 rows, 638 columns, 24856 nonzeros

Using Gurobi shared library /opt/gurobi1301/linux64/lib/libgurobi.so.13.0.1

CPU model: AMD EPYC-Genoa Processor, instruction set [SSE2|AVX|AVX2|AVX512]
Thread count: 16 physical cores, 16 logical processors, using up to 16 threads

Academic license 2792458 - for non-commercial use only - registered to an___@studenti.unipg.it
Optimize a model with 8371 rows, 638 columns and 24856 nonzeros (Max)
Model fingerprint: 0x9318b9d2
Model has 10 linear objective coefficients
Variable types: 39 continuous, 599 integer (599 binary)
Coefficient statistics:
  Matrix range     [1e+00, 3e+01]
  Objective range  [1e+00, 1e+00]
  Bounds range     [1e+00, 1e+00]
  RHS range        [1e+00, 3e+01]

Found heuristic solution: objective 10.0000000
Presolve removed 1014 rows and 201 columns
Presolve time: 0.03s
Presolved: 7357 rows, 437 columns, 22409 nonzeros
Variable types: 0 continuous, 437 integer (424 binary)
Found heuristic solution: objective 12.0000000

Root relaxation: objective 4.300000e+01, 784 iterations, 0.08 seconds (0.09 work units)

    Nodes    |    Current Node    |     Objective Bounds      |     Work
 Expl Unexpl |  Obj  Depth IntInf | Incumbent    BestBd   Gap | It/Node Time

     0     0   43.00000    0   41   12.00000   43.00000   258%     -    0s
H    0     0                      22.0000000   43.00000  95.5%     -    0s
H    0     0                      25.0000000   43.00000  72.0%     -    0s
H    0     0                      26.0000000   43.00000  65.4%     -    0s
     0     0   43.00000    0   41   26.00000   43.00000  65.4%     -    0s
     0     0   43.00000    0   41   26.00000   43.00000  65.4%     -    0s
     0     0   43.00000    0   45   26.00000   43.00000  65.4%     -    0s
     0     0   43.00000    0   39   26.00000   43.00000  65.4%     -    0s
H    0     0                      28.0000000   43.00000  53.6%     -    0s
     0     0   43.00000    0   32   28.00000   43.00000  53.6%     -    0s
     0     0   43.00000    0   32   28.00000   43.00000  53.6%     -    0s
     0     0   43.00000    0   32   28.00000   43.00000  53.6%     -    0s
     0     0   43.00000    0   32   28.00000   43.00000  53.6%     -    0s
     0     0   43.00000    0   36   28.00000   43.00000  53.6%     -    0s
     0     0   43.00000    0   42   28.00000   43.00000  53.6%     -    0s
     0     0   43.00000    0   26   28.00000   43.00000  53.6%     -    0s
     0     0   43.00000    0   40   28.00000   43.00000  53.6%     -    0s
     0     0   43.00000    0   40   28.00000   43.00000  53.6%     -    0s
     0     0   43.00000    0   40   28.00000   43.00000  53.6%     -    0s
     0     0   43.00000    0   42   28.00000   43.00000  53.6%     -    0s
     0     0   43.00000    0   30   28.00000   43.00000  53.6%     -    0s
     0     0   43.00000    0   31   28.00000   43.00000  53.6%     -    0s
     0     0   43.00000    0   37   28.00000   43.00000  53.6%     -    0s
     0     0   43.00000    0   37   28.00000   43.00000  53.6%     -    0s
     0     0   43.00000    0   37   28.00000   43.00000  53.6%     -    0s
     0     0   43.00000    0   27   28.00000   43.00000  53.6%     -    0s
     0     2   43.00000    0   27   28.00000   43.00000  53.6%     -    0s

Cutting planes:
  Gomory: 2
  Cover: 14
  MIR: 14
  Inf proof: 31
  Zero half: 7
  Mod-K: 1

Explored 2368 nodes (293157 simplex iterations) in 4.28 seconds (6.15 work units)
Thread count was 16 (of 16 available processors)

Solution count 6: 28 26 25 ... 10

Optimal solution found (tolerance 1.00e-04)
Best objective 2.800000000000e+01, best bound 2.800000000000e+01, gap 0.0000%

Wrote result file '/root/bgw/data/results/2026_03_23_13_42_48_set_exp_2_exp_2_n029_c006_g005_max.sol'

